p cnf 15 20
2 5 -1 -9 0
-15 10 13 8 12 -14 -1 -6 0
-5 11 4 -1 8 -3 14 9 12 -2 7 15 10 6 13 0
-2 -14 0
-3 -15 -4 -6 14 7 2 -8 -12 -13 5 -1 0
1 13 -11 -15 5 -14 2 10 -9 -4 0
13 -1 0
-2 11 15 0
-2 -5 -4 -14 11 12 -6 7 0
15 -7 -6 10 9 0
5 2 -4 11 -13 14 -3 7 15 -8 0
-4 14 10 0
-5 2 -12 -9 0
12 -5 -7 4 0
15 -1 -2 12 0
-15 -6 0
-8 -14 0
5 9 -6 0
11 -13 -8 0
3 -5 4 0
